StudentsNr = 10;
InstructorsNr = 12;
DaysNr = 2;
SlotsPerDay = 40;
AvailabilitySlotsLenght = 40;
RoomNr = 1;
ProgrammNr = 1;
DegreeNr = 2;
RolesNr = 1;
CoursesNr = 5;
InstructorsProgramm = [{1}, {1}, {1}, {1}, {1}, {1}, {1}, {1}, {1}, {1}, {1}, {1}];
InstructorRolesPerProgramm = [|{2, 4, 5, 6, 8}|];
InstructorsAvailability = [|0, 1, |1, 0, |0, 0, |1, 0, |0, 1, |1, 1, |1, 1, |0, 1, |1, 0, |0, 1, |1, 1, |0, 0|];
StudentsProgramm = [1, 1, 1, 1, 1, 1, 1, 1, 1, 1];
StudentsDegree = [2, 1, 1, 1, 2, 1, 2, 1, 2, 1];
StudentsSupervisorId = [1, 5, 7, 9, 4, 12, 9, 12, 1, 3];
StudentsCourseIds = [{2, 3, 4}, {2}, {2}, {4}, {1, 2, 5}, {3}, {1, 2, 3}, {2}, {3, 4, 5}, {5}];
StudentsAvailability = [|1, 1, |0, 0, |0, 0, |1, 1, |0, 0, |0, 0, |1, 0, |1, 1, |0, 0, |0, 0|];
TheoryticalMinCard = [1, 0, 1, 1, 0, 1, 2, 1, 1, 1];
CoursesInstructorIds = [{4, 5, 8, 10}, {5, 8, 10}, {3, 7, 10, 11, 12}, {1, 5, 6, 7, 11, 12}, {2, 4, 6, 8, 9, 12}];
RolesDemands = [1];
RolesContinuity = [];
ExamLen = [2, 2, 2, 2, 2, 2, 2, 2, 2, 2];
LunchTsMinLen = 2;
LunchStarts = [17..23, 57..67];
SupervisorAvailable = 5;
OptimalLunchLenght = [1, 2];
OptimalStartTs = [2, 1];
OptimalFinishTs = [0, 40];
MinimizeRooms = 100;
RolesSoftContinuity = [|1|4|];
SameDegreeInRoom = 10;
Mergeability = 0;
